p cnf 412 698
63 24 -50 76 0
63 24 -50 -76 0
20 50 22 77 0
20 50 22 -77 0
20 15 -45 78 0
20 15 -45 -78 0
23 -40 -21 79 0
23 -40 -21 -79 0
-33 -3 -39 80 0
-33 -3 -39 -80 0
30 -57 -8 81 0
30 -57 -8 -81 0
60 16 18 82 0
60 16 18 -82 0
-17 -51 -34 83 0
-17 -51 -34 -83 0
-44 -20 -8 84 0
-44 -20 -8 -84 0
41 -9 -68 85 0
41 -9 -68 -85 0
-63 14 -42 86 0
-63 14 -42 -86 0
-38 3 54 87 0
-38 3 54 -87 0
75 25 -61 88 0
75 25 -61 -88 0
1 -55 -4 89 0
1 -55 -4 -89 0
-73 10 -63 90 0
-73 10 -63 -90 0
52 -1 59 91 0
52 -1 59 -91 0
57 32 4 92 0
57 32 4 -92 0
46 -11 -36 93 0
46 -11 -36 -93 0
15 -44 -26 94 0
15 -44 -26 -94 0
-73 -49 4 95 0
-73 -49 4 -95 0
30 15 17 96 0
30 15 17 -96 0
-15 -42 18 97 0
-15 -42 18 -97 0
-20 64 65 98 0
-20 64 65 -98 0
66 -1 -61 99 0
66 -1 -61 -99 0
-6 -25 -58 100 0
-6 -25 -58 -100 0
19 4 16 101 0
19 4 16 -101 0
-46 51 -68 102 0
-46 51 -68 -102 0
17 45 -36 103 0
17 45 -36 -103 0
42 11 -67 104 0
42 11 -67 -104 0
-8 24 -68 105 0
-8 24 -68 -105 0
65 -32 60 106 0
65 -32 60 -106 0
32 34 72 107 0
32 34 72 -107 0
71 -39 67 108 0
71 -39 67 -108 0
-23 -12 -15 109 0
-23 -12 -15 -109 0
47 65 50 110 0
47 65 50 -110 0
27 33 15 111 0
27 33 15 -111 0
63 -54 -33 112 0
63 -54 -33 -112 0
-8 38 -47 113 0
-8 38 -47 -113 0
-60 -19 -6 114 0
-60 -19 -6 -114 0
56 -30 36 115 0
56 -30 36 -115 0
61 -18 71 116 0
61 -18 71 -116 0
-37 -69 -49 117 0
-37 -69 -49 -117 0
-32 20 19 118 0
-32 20 19 -118 0
-58 -10 -2 119 0
-58 -10 -2 -119 0
-70 -16 -14 120 0
-70 -16 -14 -120 0
-4 -49 75 121 0
-4 -49 75 -121 0
-14 -58 29 122 0
-14 -58 29 -122 0
-43 -8 22 123 0
-43 -8 22 -123 0
-64 -29 34 124 0
-64 -29 34 -124 0
-48 -64 31 125 0
-48 -64 31 -125 0
-60 53 -58 126 0
-60 53 -58 -126 0
-19 43 30 127 0
-19 43 30 -127 0
-50 -73 -14 128 0
-50 -73 -14 -128 0
-22 46 14 129 0
-22 46 14 -129 0
70 -9 -72 130 0
70 -9 -72 -130 0
34 54 -23 131 0
34 54 -23 -131 0
62 56 -21 132 0
62 56 -21 -132 0
22 -3 47 133 0
22 -3 47 -133 0
20 21 1 134 0
20 21 1 -134 0
41 71 -44 135 0
41 71 -44 -135 0
8 -55 -16 136 0
8 -55 -16 -136 0
8 -58 -33 137 0
8 -58 -33 -137 0
-3 -20 -64 138 0
-3 -20 -64 -138 0
4 73 10 139 0
4 73 10 -139 0
40 71 7 140 0
40 71 7 -140 0
-46 -40 7 141 0
-46 -40 7 -141 0
-39 2 -59 142 0
-39 2 -59 -142 0
-58 32 -2 143 0
-58 32 -2 -143 0
-36 10 54 144 0
-36 10 54 -144 0
-55 -54 5 145 0
-55 -54 5 -145 0
13 33 -1 146 0
13 33 -1 -146 0
21 -59 72 147 0
21 -59 72 -147 0
-62 38 -57 148 0
-62 38 -57 -148 0
44 45 73 149 0
44 45 73 -149 0
31 -69 -65 150 0
31 -69 -65 -150 0
-71 67 10 151 0
-71 67 10 -151 0
-66 32 -12 152 0
-66 32 -12 -152 0
-12 24 -30 153 0
-12 24 -30 -153 0
-57 55 8 154 0
-57 55 8 -154 0
-65 -31 -14 155 0
-65 -31 -14 -155 0
-32 -61 -60 156 0
-32 -61 -60 -156 0
70 47 -28 157 0
70 47 -28 -157 0
73 -45 12 158 0
73 -45 12 -158 0
-66 -19 3 159 0
-66 -19 3 -159 0
19 -63 34 160 0
19 -63 34 -160 0
26 -74 -10 161 0
26 -74 -10 -161 0
5 -34 -38 162 0
5 -34 -38 -162 0
21 -38 40 163 0
21 -38 40 -163 0
-55 22 -57 164 0
-55 22 -57 -164 0
72 -7 -19 165 0
72 -7 -19 -165 0
-54 47 -52 166 0
-54 47 -52 -166 0
69 44 -5 167 0
69 44 -5 -167 0
46 -39 -3 168 0
46 -39 -3 -168 0
-15 63 39 169 0
-15 63 39 -169 0
64 -14 41 170 0
64 -14 41 -170 0
-72 -34 60 171 0
-72 -34 60 -171 0
54 14 31 172 0
54 14 31 -172 0
-50 67 69 173 0
-50 67 69 -173 0
-34 42 24 174 0
-34 42 24 -174 0
-20 -23 44 175 0
-20 -23 44 -175 0
-69 38 65 176 0
-69 38 65 -176 0
4 1 -48 177 0
4 1 -48 -177 0
-65 54 62 178 0
-65 54 62 -178 0
-19 -64 55 179 0
-19 -64 55 -179 0
-72 -5 36 180 0
-72 -5 36 -180 0
-71 58 -39 181 0
-71 58 -39 -181 0
-20 -40 -62 182 0
-20 -40 -62 -182 0
-61 -63 -45 183 0
-61 -63 -45 -183 0
-61 65 -63 184 0
-61 65 -63 -184 0
53 -29 -52 185 0
53 -29 -52 -185 0
-15 -65 -25 186 0
-15 -65 -25 -186 0
39 -69 25 187 0
39 -69 25 -187 0
-17 47 -11 188 0
-17 47 -11 -188 0
-60 -4 47 189 0
-60 -4 47 -189 0
-20 21 32 190 0
-20 21 32 -190 0
-38 49 -16 191 0
-38 49 -16 -191 0
-48 66 -59 192 0
-48 66 -59 -192 0
20 33 16 193 0
20 33 16 -193 0
-12 -3 38 194 0
-12 -3 38 -194 0
62 -70 -27 195 0
62 -70 -27 -195 0
-45 29 -35 196 0
-45 29 -35 -196 0
50 -64 -53 197 0
50 -64 -53 -197 0
3 5 -26 198 0
3 5 -26 -198 0
52 46 47 199 0
52 46 47 -199 0
-21 16 15 200 0
-21 16 15 -200 0
-32 -4 -35 201 0
-32 -4 -35 -201 0
53 -38 39 202 0
53 -38 39 -202 0
-24 73 -29 203 0
-24 73 -29 -203 0
-19 68 -34 204 0
-19 68 -34 -204 0
11 -27 -4 205 0
11 -27 -4 -205 0
31 42 -65 206 0
31 42 -65 -206 0
75 -67 4 207 0
75 -67 4 -207 0
54 61 -57 208 0
54 61 -57 -208 0
47 -69 -2 209 0
47 -69 -2 -209 0
-47 27 68 210 0
-47 27 68 -210 0
27 55 72 211 0
27 55 72 -211 0
-57 1 18 212 0
-57 1 18 -212 0
-13 -10 -66 213 0
-13 -10 -66 -213 0
-38 -10 -60 214 0
-38 -10 -60 -214 0
29 18 12 215 0
29 18 12 -215 0
-52 -42 16 216 0
-52 -42 16 -216 0
74 40 -19 217 0
74 40 -19 -217 0
20 38 58 218 0
20 38 58 -218 0
-1 69 31 219 0
-1 69 31 -219 0
-45 62 20 220 0
-45 62 20 -220 0
17 60 -75 221 0
17 60 -75 -221 0
-51 -31 -22 222 0
-51 -31 -22 -222 0
43 -66 -8 223 0
43 -66 -8 -223 0
46 -1 -33 224 0
46 -1 -33 -224 0
3 32 -52 225 0
3 32 -52 -225 0
-55 -29 45 226 0
-55 -29 45 -226 0
37 33 58 227 0
37 33 58 -227 0
73 -68 -35 228 0
73 -68 -35 -228 0
-68 -69 31 229 0
-68 -69 31 -229 0
72 11 -73 230 0
72 11 -73 -230 0
-73 -52 28 231 0
-73 -52 28 -231 0
-14 75 -62 232 0
-14 75 -62 -232 0
-23 -27 -57 233 0
-23 -27 -57 -233 0
56 42 43 234 0
56 42 43 -234 0
-32 -34 29 235 0
-32 -34 29 -235 0
48 -33 -39 236 0
48 -33 -39 -236 0
38 71 -54 237 0
38 71 -54 -237 0
-56 52 -25 238 0
-56 52 -25 -238 0
19 68 -42 239 0
19 68 -42 -239 0
61 60 22 240 0
61 60 22 -240 0
-27 8 35 241 0
-27 8 35 -241 0
58 70 -27 242 0
58 70 -27 -242 0
5 -7 -29 243 0
5 -7 -29 -243 0
-27 63 -47 244 0
-27 63 -47 -244 0
57 3 59 245 0
57 3 59 -245 0
-5 43 -27 246 0
-5 43 -27 -246 0
71 -15 53 247 0
71 -15 53 -247 0
73 56 -11 248 0
73 56 -11 -248 0
-5 36 -44 249 0
-5 36 -44 -249 0
50 10 63 250 0
50 10 63 -250 0
53 -18 47 251 0
53 -18 47 -251 0
-62 -53 -19 252 0
-62 -53 -19 -252 0
-43 71 -51 253 0
-43 71 -51 -253 0
34 26 -20 254 0
34 26 -20 -254 0
-62 51 -59 255 0
-62 51 -59 -255 0
53 -61 -13 256 0
53 -61 -13 -256 0
-29 51 -48 257 0
-29 51 -48 -257 0
43 57 -42 258 0
43 57 -42 -258 0
2 -69 14 259 0
2 -69 14 -259 0
-70 57 -66 260 0
-70 57 -66 -260 0
-49 8 -60 261 0
-49 8 -60 -261 0
57 60 -25 262 0
57 60 -25 -262 0
-75 74 -20 263 0
-75 74 -20 -263 0
-30 -18 -48 264 0
-30 -18 -48 -264 0
-58 35 -24 265 0
-58 35 -24 -265 0
47 -61 62 266 0
47 -61 62 -266 0
5 -29 4 267 0
5 -29 4 -267 0
67 58 -35 268 0
67 58 -35 -268 0
65 53 69 269 0
65 53 69 -269 0
4 -3 67 270 0
4 -3 67 -270 0
-7 -22 65 271 0
-7 -22 65 -271 0
12 57 -67 272 0
12 57 -67 -272 0
51 1 -31 273 0
51 1 -31 -273 0
-61 1 -32 274 0
-61 1 -32 -274 0
11 -41 55 275 0
11 -41 55 -275 0
-7 -74 51 276 0
-7 -74 51 -276 0
34 4 10 277 0
34 4 10 -277 0
74 70 20 278 0
74 70 20 -278 0
-9 -64 -32 279 0
-9 -64 -32 -279 0
-17 -54 34 280 0
-17 -54 34 -280 0
-25 63 1 281 0
-25 63 1 -281 0
-18 -20 -38 282 0
-18 -20 -38 -282 0
-41 33 2 283 0
-41 33 2 -283 0
-4 -26 -65 284 0
-4 -26 -65 -284 0
-59 47 -17 285 0
-59 47 -17 -285 0
4 -15 67 286 0
4 -15 67 -286 0
-32 -17 -28 287 0
-32 -17 -28 -287 0
-52 24 -25 288 0
-52 24 -25 -288 0
-11 -22 12 289 0
-11 -22 12 -289 0
-58 48 51 290 0
-58 48 51 -290 0
41 30 18 291 0
41 30 18 -291 0
-41 -66 33 292 0
-41 -66 33 -292 0
60 37 -40 293 0
60 37 -40 -293 0
70 25 -4 294 0
70 25 -4 -294 0
-10 7 -41 295 0
-10 7 -41 -295 0
63 47 -23 296 0
63 47 -23 -296 0
-21 -45 46 297 0
-21 -45 46 -297 0
68 23 67 298 0
68 23 67 -298 0
15 27 -30 299 0
15 27 -30 -299 0
-11 42 -61 300 0
-11 42 -61 -300 0
-44 14 -37 301 0
-44 14 -37 -301 0
47 38 -10 302 0
47 38 -10 -302 0
-49 -8 71 303 0
-49 -8 71 -303 0
-46 54 -1 304 0
-46 54 -1 -304 0
-8 53 40 305 0
-8 53 40 -305 0
28 18 67 306 0
28 18 67 -306 0
66 73 42 307 0
66 73 42 -307 0
56 -21 10 308 0
56 -21 10 -308 0
-68 38 17 309 0
-68 38 17 -309 0
48 41 5 310 0
48 41 5 -310 0
43 -52 -26 311 0
43 -52 -26 -311 0
66 -61 -59 312 0
66 -61 -59 -312 0
-46 -49 -16 313 0
-46 -49 -16 -313 0
17 -63 -37 314 0
17 -63 -37 -314 0
-60 -29 -36 315 0
-60 -29 -36 -315 0
73 -8 37 316 0
73 -8 37 -316 0
-9 -32 17 317 0
-9 -32 17 -317 0
62 34 -59 318 0
62 34 -59 -318 0
-3 -30 42 319 0
-3 -30 42 -319 0
-35 48 50 320 0
-35 48 50 -320 0
55 -35 -24 321 0
55 -35 -24 -321 0
-48 -66 22 322 0
-48 -66 22 -322 0
-74 -45 -44 323 0
-74 -45 -44 -323 0
37 49 -12 324 0
37 49 -12 -324 0
-25 -48 47 325 0
-25 -48 47 -325 0
-15 22 44 326 0
-15 22 44 -326 0
-29 -10 -17 327 0
-29 -10 -17 -327 0
61 -73 43 328 0
61 -73 43 -328 0
10 17 64 329 0
10 17 64 -329 0
-21 -44 49 330 0
-21 -44 49 -330 0
-2 58 -37 331 0
-2 58 -37 -331 0
71 49 9 332 0
71 49 9 -332 0
-12 9 -5 333 0
-12 9 -5 -333 0
-69 -47 2 334 0
-69 -47 2 -334 0
58 14 64 335 0
58 14 64 -335 0
46 -8 14 336 0
46 -8 14 -336 0
7 -48 8 337 0
7 -48 8 -337 0
23 -72 41 338 0
23 -72 41 -338 0
13 45 -50 339 0
13 45 -50 -339 0
34 -10 -56 340 0
34 -10 -56 -340 0
-54 12 -69 341 0
-54 12 -69 -341 0
28 -26 19 342 0
28 -26 19 -342 0
67 64 -75 343 0
67 64 -75 -343 0
35 -30 -20 344 0
35 -30 -20 -344 0
51 2 56 345 0
51 2 56 -345 0
19 -4 -32 346 0
19 -4 -32 -346 0
58 -24 -1 347 0
58 -24 -1 -347 0
4 51 -31 348 0
4 51 -31 -348 0
-54 -42 -2 349 0
-54 -42 -2 -349 0
44 -27 -46 350 0
44 -27 -46 -350 0
44 1 -74 351 0
44 1 -74 -351 0
-51 -70 17 352 0
-51 -70 17 -352 0
-18 74 -51 353 0
-18 74 -51 -353 0
20 -54 -25 354 0
20 -54 -25 -354 0
65 -20 26 355 0
65 -20 26 -355 0
31 12 10 356 0
31 12 10 -356 0
-23 -63 17 357 0
-23 -63 17 -357 0
40 55 9 358 0
40 55 9 -358 0
73 -47 -64 359 0
73 -47 -64 -359 0
-21 56 61 360 0
-21 56 61 -360 0
-55 -47 -41 361 0
-55 -47 -41 -361 0
11 -23 40 362 0
11 -23 40 -362 0
-39 -26 57 363 0
-39 -26 57 -363 0
-58 -38 -55 364 0
-58 -38 -55 -364 0
-12 -5 -28 365 0
-12 -5 -28 -365 0
-26 31 16 366 0
-26 31 16 -366 0
44 -31 38 367 0
44 -31 38 -367 0
-10 -22 50 368 0
-10 -22 50 -368 0
-1 51 54 369 0
-1 51 54 -369 0
-27 33 42 370 0
-27 33 42 -370 0
23 -55 -49 371 0
23 -55 -49 -371 0
53 14 24 372 0
53 14 24 -372 0
38 32 28 373 0
38 32 28 -373 0
28 24 72 374 0
28 24 72 -374 0
43 31 52 375 0
43 31 52 -375 0
28 -32 61 376 0
28 -32 61 -376 0
69 -47 -46 377 0
69 -47 -46 -377 0
-25 24 -23 378 0
-25 24 -23 -378 0
-74 -64 -70 379 0
-74 -64 -70 -379 0
-14 -36 29 380 0
-14 -36 29 -380 0
-71 -73 -69 381 0
-71 -73 -69 -381 0
-14 68 35 382 0
-14 68 35 -382 0
-51 35 44 383 0
-51 35 44 -383 0
-45 11 -68 384 0
-45 11 -68 -384 0
-37 20 -22 385 0
-37 20 -22 -385 0
27 -5 -65 386 0
27 -5 -65 -386 0
-9 -75 -55 387 0
-9 -75 -55 -387 0
63 34 25 388 0
63 34 25 -388 0
36 -2 -47 389 0
36 -2 -47 -389 0
14 -1 71 390 0
14 -1 71 -390 0
27 17 -10 391 0
27 17 -10 -391 0
-4 46 -72 392 0
-4 46 -72 -392 0
-48 75 -14 393 0
-48 75 -14 -393 0
34 67 47 394 0
34 67 47 -394 0
-57 -33 13 395 0
-57 -33 13 -395 0
-58 19 -20 396 0
-58 19 -20 -396 0
-63 38 -27 397 0
-63 38 -27 -397 0
-39 -69 52 398 0
-39 -69 52 -398 0
24 61 70 399 0
24 61 70 -399 0
-11 38 19 400 0
-11 38 19 -400 0
401 402 403 404 0
401 402 403 -404 0
401 402 -403 404 0
401 402 -403 -404 0
401 -402 403 404 0
401 -402 403 -404 0
401 -402 -403 404 0
401 -402 -403 -404 0
-401 402 403 404 0
-401 402 403 -404 0
-401 402 -403 404 0
-401 402 -403 -404 0
-401 -402 403 404 0
-401 -402 403 -404 0
-401 -402 -403 404 0
-401 -402 -403 -404 0
405 406 407 408 0
405 406 407 -408 0
405 406 -407 408 0
405 406 -407 -408 0
405 -406 407 408 0
405 -406 407 -408 0
405 -406 -407 408 0
405 -406 -407 -408 0
-405 406 407 408 0
-405 406 407 -408 0
-405 406 -407 408 0
-405 406 -407 -408 0
-405 -406 407 408 0
-405 -406 407 -408 0
-405 -406 -407 408 0
-405 -406 -407 -408 0
409 410 411 412 0
409 410 411 -412 0
409 410 -411 412 0
409 410 -411 -412 0
409 -410 411 412 0
409 -410 411 -412 0
409 -410 -411 412 0
409 -410 -411 -412 0
-409 410 411 412 0
-409 410 411 -412 0
-409 410 -411 412 0
-409 410 -411 -412 0
-409 -410 411 412 0
-409 -410 411 -412 0
-409 -410 -411 412 0
-409 -410 -411 -412 0
